11
0 44 69 37 100 84 29 76 88 42 67
44 0 73 50 66 92 56 84 97 30 68
69 73 0 79 59 82 38 41 100 23 65
37 50 79 0 92 36 96 29 47 88 29
100 66 59 92 0 56 37 67 16 56 37
84 92 82 36 56 0 64 36 67 68 40
29 56 38 96 37 64 0 44 67 51 45
76 84 41 29 67 36 44 0 56 81 19
88 97 100 47 16 67 67 56 0 71 76
42 30 23 88 56 68 51 81 71 0 85
67 68 65 29 37 40 45 19 76 85 0
